c WARNING: for repeatability, setting FPU to use double precision
d VARIABLES            60310        
d CONSTRAINTS          258436       
c ============================[ Problem Statistics ]=============================
c |                                                                             |
c |  Number of variables:         60310                                         |
c |  Number of clauses:          258436                                         |
c |  Parse time:                   0.04 s                                       |
c |                                                                             |
c ============================[ Search Statistics ]==============================
c | Conflicts |          ORIGINAL         |          LEARNT          | Progress |
c |           |    Vars  Clauses Literals |    Limit  Clauses Lit/Cl |          |
c ===============================================================================
c |       100 |   48511   224948   547086 |    82480       99     11 | 19.564 % |
c |       250 |   48511   224948   547086 |    90729      249     11 | 19.564 % |
c |       475 |   48511   224948   547086 |    99801      474     31 | 19.564 % |
c |       812 |   48511   224889   546944 |   109782      811     48 | 19.564 % |
c |      1318 |   48511   224889   546944 |   120760     1317     79 | 19.564 % |
c |      2077 |   48511   224889   546944 |   132836     2076     81 | 19.564 % |
c |      3216 |   48511   224889   546944 |   146120     3215     88 | 19.564 % |
c |      4924 |   48511   224889   546944 |   160732     4923     86 | 19.564 % |
c |      7486 |   48511   224889   546944 |   176805     7485    116 | 19.564 % |
c |     11330 |   48511   224889   546944 |   194485    11329    120 | 19.564 % |
c |     17096 |   48511   224889   546944 |   213934    17095    121 | 19.564 % |
c ===============================================================================
c restarts              : 73
c conflicts             : 20694          (4240 /sec)
c decisions             : 94724          (0.00 % random) (19409 /sec)
c propagations          : 27375380       (5609358 /sec)
c conflict literals     : 2645204        (13.26 % deleted)
d RESTARTS             73
d FAILURES             20694        
d NODES                94724        
d BACKTRACKS           94724        
d PROPAGATIONS         27375380     
d NOGOODSIZE           127.82 
d MEMORY               37.00 
d TIME                 4.8803 

s SATISFIABLE
